
  32    4
  10   10   10   10

   0   0   0   0   0   4 2 7 30 31 
   7  10  10  10  10   3 15 13 3 
  10  10  10  10  10   2 17 4 
   3  10  10  10  10   1 5 
   9  10  10  10  10   3 11 8 6 
   5  10  10  10  10   3 29 21 9 
   6  10  10  10  10   3 13 11 10 
   9  10  10  10  10   4 29 28 21 12 
  10  10  10  10  10   1 10 
   6  10  10  10  10   2 28 12 
  10  10  10  10  10   2 29 14 
   5  10  10  10  10   1 14 
   7  10  10  10  10   1 14 
   4  10  10  10  10   2 27 16 
   2  10  10  10  10   3 25 18 17 
   2  10  10  10  10   3 26 25 18 
   4  10  10  10  10   2 21 19 
   3  10  10  10  10   1 19 
   1  10  10  10  10   2 24 20 
   4  10  10  10  10   1 22 
   5  10  10  10  10   1 22 
   5  10  10  10  10   1 23 
   6  10  10  10  10   1 32
   1  10  10  10  10   1 32
   2  10  10  10  10   1 32
   8  10  10  10  10   1 32
   6  10  10  10  10   1 32
   7  10  10  10  10   1 32
   3  10  10  10  10   1 32
   8  10  10  10  10   1 32
   1  10  10  10  10   1 32
   0   0   0   0   0   0 
